Route #1: 6 30 78 68 8 37 18
Route #2: 62 11 34 2 7
Route #3: 42 77 29 27 59 1 40
Route #4: 13 17 25 47 19 65 35 43 5 63
Route #5: 21 28 79 14 48 52 71 10
Route #6: 3 75 16 61 20 31 64 60 51
Route #7: 24 46 41 33 55 56 69 26 57 36
Route #8: 38 58 50 54 9 15 39
Route #9: 49 73 67 66 12 44 23 74
Route #10: 53 32 4 45 22 76 72 70
cost 2280.440185546875